Optimal - objective value 28672.00000000
      0 F                  28672                       1
      1 m_1_2                  1                       0
      4 m_3_1                  1                       0
      6 m_4_1                  1                       0
      7 m_1_5                  1                       0
      9 m_1_6                  1                       0
     11 m_1_7                  1                       0
     14 m_8_1                  1                       0
     15 m_1_9                  1                       0
     17 m_1_10                 1                       0
     19 m_1_11                 1                       0
     21 m_1_12                 1                       0
     23 m_1_13                 1                       0
     25 m_1_14                 1                       0
     27 m_1_15                 1                       0
     29 m_1_16                 1                       0
     31 m_1_17                 1                       0
     33 m_1_18                 1                       0
     35 m_1_19                 1                       0
     37 m_1_20                 1                       0
     39 m_1_21                 1                       0
     41 m_1_22                 1                       0
     43 m_1_23                 1                       0
     45 m_1_24                 1                       0
     47 m_1_25                 1                       0
     49 m_1_26                 1                       0
     51 m_1_27                 1                       0
     53 m_1_28                 1                       0
     55 m_1_29                 1                       0
     57 m_1_30                 1                       0
     60 m_3_2                  1                       0
     62 m_4_2                  1                       0
     64 m_5_2                  1                       0
     65 m_2_6                  1                       0
     67 m_2_7                  1                       0
     70 m_8_2                  1                       0
     72 m_9_2                  1                       0
     73 m_2_10                 1                       0
     75 m_2_11                 1                       0
     77 m_2_12                 1                       0
     79 m_2_13                 1                       0
     81 m_2_14                 1                       0
     83 m_2_15                 1                       0
     85 m_2_16                 1                       0
     88 m_17_2                 1                       0
     89 m_2_18                 1                       0
     91 m_2_19                 1                       0
     93 m_2_20                 1                       0
     95 m_2_21                 1                       0
     97 m_2_22                 1                       0
     99 m_2_23                 1                       0
    101 m_2_24                 1                       0
    103 m_2_25                 1                       0
    105 m_2_26                 1                       0
    107 m_2_27                 1                       0
    109 m_2_28                 1                       0
    111 m_2_29                 1                       0
    113 m_2_30                 1                       0
    115 m_3_4                  1                       0
    117 m_3_5                  1                       0
    119 m_3_6                  1                       0
    121 m_3_7                  1                       0
    123 m_3_8                  1                       0
    125 m_3_9                  1                       0
    127 m_3_10                 1                       0
    129 m_3_11                 1                       0
    131 m_3_12                 1                       0
    133 m_3_13                 1                       0
    135 m_3_14                 1                       0
    137 m_3_15                 1                       0
    139 m_3_16                 1                       0
    141 m_3_17                 1                       0
    143 m_3_18                 1                       0
    145 m_3_19                 1                       0
    147 m_3_20                 1                       0
    149 m_3_21                 1                       0
    151 m_3_22                 1                       0
    153 m_3_23                 1                       0
    155 m_3_24                 1                       0
    157 m_3_25                 1                       0
    159 m_3_26                 1                       0
    161 m_3_27                 1                       0
    163 m_3_28                 1                       0
    165 m_3_29                 1                       0
    167 m_3_30                 1                       0
    169 m_4_5                  1                       0
    171 m_4_6                  1                       0
    173 m_4_7                  1                       0
    175 m_4_8                  1                       0
    177 m_4_9                  1                       0
    179 m_4_10                 1                       0
    181 m_4_11                 1                       0
    183 m_4_12                 1                       0
    185 m_4_13                 1                       0
    187 m_4_14                 1                       0
    189 m_4_15                 1                       0
    191 m_4_16                 1                       0
    193 m_4_17                 1                       0
    195 m_4_18                 1                       0
    197 m_4_19                 1                       0
    199 m_4_20                 1                       0
    201 m_4_21                 1                       0
    203 m_4_22                 1                       0
    205 m_4_23                 1                       0
    207 m_4_24                 1                       0
    209 m_4_25                 1                       0
    211 m_4_26                 1                       0
    213 m_4_27                 1                       0
    215 m_4_28                 1                       0
    217 m_4_29                 1                       0
    219 m_4_30                 1                       0
    221 m_5_6                  1                       0
    223 m_5_7                  1                       0
    226 m_8_5                  1                       0
    227 m_5_9                  1                       0
    229 m_5_10                 1                       0
    231 m_5_11                 1                       0
    233 m_5_12                 1                       0
    235 m_5_13                 1                       0
    237 m_5_14                 1                       0
    239 m_5_15                 1                       0
    241 m_5_16                 1                       0
    243 m_5_17                 1                       0
    245 m_5_18                 1                       0
    247 m_5_19                 1                       0
    249 m_5_20                 1                       0
    251 m_5_21                 1                       0
    253 m_5_22                 1                       0
    255 m_5_23                 1                       0
    257 m_5_24                 1                       0
    259 m_5_25                 1                       0
    261 m_5_26                 1                       0
    263 m_5_27                 1                       0
    265 m_5_28                 1                       0
    267 m_5_29                 1                       0
    269 m_5_30                 1                       0
    271 m_6_7                  1                       0
    274 m_8_6                  1                       0
    276 m_9_6                  1                       0
    277 m_6_10                 1                       0
    279 m_6_11                 1                       0
    281 m_6_12                 1                       0
    283 m_6_13                 1                       0
    285 m_6_14                 1                       0
    287 m_6_15                 1                       0
    289 m_6_16                 1                       0
    292 m_17_6                 1                       0
    293 m_6_18                 1                       0
    295 m_6_19                 1                       0
    297 m_6_20                 1                       0
    299 m_6_21                 1                       0
    301 m_6_22                 1                       0
    303 m_6_23                 1                       0
    305 m_6_24                 1                       0
    307 m_6_25                 1                       0
    309 m_6_26                 1                       0
    311 m_6_27                 1                       0
    313 m_6_28                 1                       0
    315 m_6_29                 1                       0
    317 m_6_30                 1                       0
    320 m_8_7                  1                       0
    322 m_9_7                  1                       0
    323 m_7_10                 1                       0
    325 m_7_11                 1                       0
    327 m_7_12                 1                       0
    329 m_7_13                 1                       0
    331 m_7_14                 1                       0
    333 m_7_15                 1                       0
    335 m_7_16                 1                       0
    338 m_17_7                 1                       0
    339 m_7_18                 1                       0
    341 m_7_19                 1                       0
    343 m_7_20                 1                       0
    345 m_7_21                 1                       0
    347 m_7_22                 1                       0
    349 m_7_23                 1                       0
    351 m_7_24                 1                       0
    353 m_7_25                 1                       0
    355 m_7_26                 1                       0
    357 m_7_27                 1                       0
    359 m_7_28                 1                       0
    361 m_7_29                 1                       0
    363 m_7_30                 1                       0
    365 m_8_9                  1                       0
    367 m_8_10                 1                       0
    369 m_8_11                 1                       0
    371 m_8_12                 1                       0
    373 m_8_13                 1                       0
    375 m_8_14                 1                       0
    377 m_8_15                 1                       0
    379 m_8_16                 1                       0
    381 m_8_17                 1                       0
    383 m_8_18                 1                       0
    385 m_8_19                 1                       0
    387 m_8_20                 1                       0
    389 m_8_21                 1                       0
    391 m_8_22                 1                       0
    393 m_8_23                 1                       0
    395 m_8_24                 1                       0
    397 m_8_25                 1                       0
    399 m_8_26                 1                       0
    401 m_8_27                 1                       0
    403 m_8_28                 1                       0
    405 m_8_29                 1                       0
    407 m_8_30                 1                       0
    409 m_9_10                 1                       0
    411 m_9_11                 1                       0
    413 m_9_12                 1                       0
    415 m_9_13                 1                       0
    417 m_9_14                 1                       0
    419 m_9_15                 1                       0
    421 m_9_16                 1                       0
    423 m_9_17                 1                       0
    425 m_9_18                 1                       0
    427 m_9_19                 1                       0
    429 m_9_20                 1                       0
    431 m_9_21                 1                       0
    433 m_9_22                 1                       0
    435 m_9_23                 1                       0
    437 m_9_24                 1                       0
    439 m_9_25                 1                       0
    441 m_9_26                 1                       0
    443 m_9_27                 1                       0
    445 m_9_28                 1                       0
    447 m_9_29                 1                       0
    449 m_9_30                 1                       0
    452 m_11_10                1                       0
    454 m_12_10                1                       0
    455 m_10_13                1                       0
    457 m_10_14                1                       0
    460 m_15_10                1                       0
    462 m_16_10                1                       0
    464 m_17_10                1                       0
    465 m_10_18                1                       0
    467 m_10_19                1                       0
    469 m_10_20                1                       0
    471 m_10_21                1                       0
    473 m_10_22                1                       0
    475 m_10_23                1                       0
    477 m_10_24                1                       0
    479 m_10_25                1                       0
    481 m_10_26                1                       0
    483 m_10_27                1                       0
    485 m_10_28                1                       0
    487 m_10_29                1                       0
    489 m_10_30                1                       0
    491 m_11_12                1                       0
    493 m_11_13                1                       0
    495 m_11_14                1                       0
    497 m_11_15                1                       0
    499 m_11_16                1                       0
    502 m_17_11                1                       0
    503 m_11_18                1                       0
    505 m_11_19                1                       0
    507 m_11_20                1                       0
    509 m_11_21                1                       0
    511 m_11_22                1                       0
    513 m_11_23                1                       0
    515 m_11_24                1                       0
    517 m_11_25                1                       0
    519 m_11_26                1                       0
    521 m_11_27                1                       0
    523 m_11_28                1                       0
    525 m_11_29                1                       0
    527 m_11_30                1                       0
    529 m_12_13                1                       0
    531 m_12_14                1                       0
    534 m_15_12                1                       0
    535 m_12_16                1                       0
    538 m_17_12                1                       0
    539 m_12_18                1                       0
    541 m_12_19                1                       0
    543 m_12_20                1                       0
    545 m_12_21                1                       0
    547 m_12_22                1                       0
    549 m_12_23                1                       0
    551 m_12_24                1                       0
    553 m_12_25                1                       0
    555 m_12_26                1                       0
    557 m_12_27                1                       0
    559 m_12_28                1                       0
    561 m_12_29                1                       0
    563 m_12_30                1                       0
    565 m_13_14                1                       0
    568 m_15_13                1                       0
    570 m_16_13                1                       0
    572 m_17_13                1                       0
    574 m_18_13                1                       0
    575 m_13_19                1                       0
    577 m_13_20                1                       0
    579 m_13_21                1                       0
    581 m_13_22                1                       0
    583 m_13_23                1                       0
    585 m_13_24                1                       0
    587 m_13_25                1                       0
    589 m_13_26                1                       0
    591 m_13_27                1                       0
    593 m_13_28                1                       0
    595 m_13_29                1                       0
    597 m_13_30                1                       0
    600 m_15_14                1                       0
    602 m_16_14                1                       0
    604 m_17_14                1                       0
    606 m_18_14                1                       0
    608 m_19_14                1                       0
    609 m_14_20                1                       0
    612 m_21_14                1                       0
    613 m_14_22                1                       0
    616 m_23_14                1                       0
    617 m_14_24                1                       0
    619 m_14_25                1                       0
    621 m_14_26                1                       0
    623 m_14_27                1                       0
    625 m_14_28                1                       0
    627 m_14_29                1                       0
    629 m_14_30                1                       0
    631 m_15_16                1                       0
    634 m_17_15                1                       0
    635 m_15_18                1                       0
    637 m_15_19                1                       0
    639 m_15_20                1                       0
    641 m_15_21                1                       0
    643 m_15_22                1                       0
    645 m_15_23                1                       0
    647 m_15_24                1                       0
    649 m_15_25                1                       0
    651 m_15_26                1                       0
    653 m_15_27                1                       0
    655 m_15_28                1                       0
    657 m_15_29                1                       0
    659 m_15_30                1                       0
    662 m_17_16                1                       0
    663 m_16_18                1                       0
    665 m_16_19                1                       0
    667 m_16_20                1                       0
    669 m_16_21                1                       0
    671 m_16_22                1                       0
    673 m_16_23                1                       0
    675 m_16_24                1                       0
    677 m_16_25                1                       0
    679 m_16_26                1                       0
    681 m_16_27                1                       0
    683 m_16_28                1                       0
    685 m_16_29                1                       0
    687 m_16_30                1                       0
    689 m_17_18                1                       0
    691 m_17_19                1                       0
    693 m_17_20                1                       0
    695 m_17_21                1                       0
    697 m_17_22                1                       0
    699 m_17_23                1                       0
    701 m_17_24                1                       0
    703 m_17_25                1                       0
    705 m_17_26                1                       0
    707 m_17_27                1                       0
    709 m_17_28                1                       0
    711 m_17_29                1                       0
    713 m_17_30                1                       0
    715 m_18_19                1                       0
    717 m_18_20                1                       0
    719 m_18_21                1                       0
    721 m_18_22                1                       0
    723 m_18_23                1                       0
    725 m_18_24                1                       0
    727 m_18_25                1                       0
    729 m_18_26                1                       0
    731 m_18_27                1                       0
    733 m_18_28                1                       0
    735 m_18_29                1                       0
    737 m_18_30                1                       0
    739 m_19_20                1                       0
    742 m_21_19                1                       0
    743 m_19_22                1                       0
    745 m_19_23                1                       0
    747 m_19_24                1                       0
    749 m_19_25                1                       0
    751 m_19_26                1                       0
    753 m_19_27                1                       0
    755 m_19_28                1                       0
    757 m_19_29                1                       0
    759 m_19_30                1                       0
    762 m_21_20                1                       0
    763 m_20_22                1                       0
    766 m_23_20                1                       0
    767 m_20_24                1                       0
    769 m_20_25                1                       0
    771 m_20_26                1                       0
    773 m_20_27                1                       0
    775 m_20_28                1                       0
    777 m_20_29                1                       0
    779 m_20_30                1                       0
    781 m_21_22                1                       0
    783 m_21_23                1                       0
    785 m_21_24                1                       0
    787 m_21_25                1                       0
    789 m_21_26                1                       0
    791 m_21_27                1                       0
    793 m_21_28                1                       0
    795 m_21_29                1                       0
    797 m_21_30                1                       0
    800 m_23_22                1                       0
    802 m_24_22                1                       0
    803 m_22_25                1                       0
    806 m_26_22                1                       0
    808 m_27_22                1                       0
    809 m_22_28                1                       0
    811 m_22_29                1                       0
    814 m_30_22                1                       0
    815 m_23_24                1                       0
    817 m_23_25                1                       0
    819 m_23_26                1                       0
    821 m_23_27                1                       0
    823 m_23_28                1                       0
    825 m_23_29                1                       0
    827 m_23_30                1                       0
    829 m_24_25                1                       0
    832 m_26_24                1                       0
    834 m_27_24                1                       0
    835 m_24_28                1                       0
    837 m_24_29                1                       0
    840 m_30_24                1                       0
    842 m_26_25                1                       0
    844 m_27_25                1                       0
    845 m_25_28                1                       0
    848 m_29_25                1                       0
    850 m_30_25                1                       0
    851 m_26_27                1                       0
    853 m_26_28                1                       0
    855 m_26_29                1                       0
    858 m_30_26                1                       0
    859 m_27_28                1                       0
    861 m_27_29                1                       0
    864 m_30_27                1                       0
    866 m_29_28                1                       0
    868 m_30_28                1                       0
    870 m_30_29                1                       0
    871 s_1                    4                       0
    872 m_1_1                  1                       0
    873 s_2                    8                       0
    874 m_2_2                  1                       0
    875 s_3                    1                       0
    876 m_3_3                  1                       0
    877 s_4                    2                       0
    878 m_4_4                  1                       0
    879 s_5                    5                       0
    880 m_5_5                  1                       0
    881 s_6                    9                       0
    882 m_6_6                  1                       0
    883 s_7                   10                       0
    884 m_7_7                  1                       0
    885 s_8                    3                       0
    886 m_8_8                  1                       0
    887 s_9                    6                       0
    888 m_9_9                  1                       0
    889 s_10                  15                       0
    890 m_10_10                1                       0
    891 s_11                  11                       0
    892 m_11_11                1                       0
    893 s_12                  13                       0
    894 m_12_12                1                       0
    895 s_13                  17                       0
    896 m_13_13                1                       0
    897 s_14                  21                       0
    898 m_14_14                1                       0
    899 s_15                  12                       0
    900 m_15_15                1                       0
    901 s_16                  14                       0
    902 m_16_16                1                       0
    903 s_17                   7                       0
    904 m_17_17                1                       0
    905 s_18                  16                       0
    906 m_18_18                1                       0
    907 s_19                  19                       0
    908 m_19_19                1                       0
    909 s_20                  22                       0
    910 m_20_20                1                       0
    911 s_21                  18                       0
    912 m_21_21                1                       0
    913 s_22                  27                       0
    914 m_22_22                1                       0
    915 s_23                  20                       0
    916 m_23_23                1                       0
    917 s_24                  26                       0
    918 m_24_24                1                       0
    919 s_25                  29                       0
    920 m_25_25                1                       0
    921 s_26                  24                       0
    922 m_26_26                1                       0
    923 s_27                  25                       0
    924 m_27_27                1                       0
    925 s_28                  30                       0
    926 m_28_28                1                       0
    927 s_29                  28                       0
    928 m_29_29                1                       0
    929 s_30                  23                       0
    930 m_30_30                1                       0
    931 y_1_1                  1                       0
    934 y_4_1                  1                       0
    938 y_8_1                  1                       0
    962 y_2_2                  1                       0
    964 y_4_2                  1                       0
    969 y_9_2                  1                       0
    993 y_3_3                  1                       0
   1023 y_3_4                  1                       0
   1024 y_4_4                  1                       0
   1051 y_1_5                  1                       0
   1054 y_4_5                  1                       0
   1055 y_5_5                  1                       0
   1058 y_8_5                  1                       0
   1082 y_2_6                  1                       0
   1084 y_4_6                  1                       0
   1086 y_6_6                  1                       0
   1089 y_9_6                  1                       0
   1112 y_2_7                  1                       0
   1116 y_6_7                  1                       0
   1117 y_7_7                  1                       0
   1119 y_9_7                  1                       0
   1143 y_3_8                  1                       0
   1144 y_4_8                  1                       0
   1148 y_8_8                  1                       0
   1174 y_4_9                  1                       0
   1175 y_5_9                  1                       0
   1178 y_8_9                  1                       0
   1179 y_9_9                  1                       0
   1206 y_6_10                 1                       0
   1210 y_10_10                1                       0
   1211 y_11_10                1                       0
   1215 y_15_10                1                       0
   1216 y_16_10                1                       0
   1236 y_6_11                 1                       0
   1237 y_7_11                 1                       0
   1239 y_9_11                 1                       0
   1241 y_11_11                1                       0
   1266 y_6_12                 1                       0
   1271 y_11_12                1                       0
   1272 y_12_12                1                       0
   1275 y_15_12                1                       0
   1300 y_10_13                1                       0
   1301 y_11_13                1                       0
   1303 y_13_13                1                       0
   1305 y_15_13                1                       0
   1331 y_11_14                1                       0
   1334 y_14_14                1                       0
   1339 y_19_14                1                       0
   1343 y_23_14                1                       0
   1356 y_6_15                 1                       0
   1359 y_9_15                 1                       0
   1361 y_11_15                1                       0
   1365 y_15_15                1                       0
   1386 y_6_16                 1                       0
   1391 y_11_16                1                       0
   1392 y_12_16                1                       0
   1395 y_15_16                1                       0
   1396 y_16_16                1                       0
   1414 y_4_17                 1                       0
   1419 y_9_17                 1                       0
   1427 y_17_17                1                       0
   1450 y_10_18                1                       0
   1451 y_11_18                1                       0
   1455 y_15_18                1                       0
   1456 y_16_18                1                       0
   1458 y_18_18                1                       0
   1481 y_11_19                1                       0
   1483 y_13_19                1                       0
   1485 y_15_19                1                       0
   1489 y_19_19                1                       0
   1514 y_14_20                1                       0
   1519 y_19_20                1                       0
   1520 y_20_20                1                       0
   1523 y_23_20                1                       0
   1541 y_11_21                1                       0
   1543 y_13_21                1                       0
   1545 y_15_21                1                       0
   1551 y_21_21                1                       0
   1579 y_19_22                1                       0
   1582 y_22_22                1                       0
   1583 y_23_22                1                       0
   1584 y_24_22                1                       0
   1601 y_11_23                1                       0
   1609 y_19_23                1                       0
   1613 y_23_23                1                       0
   1639 y_19_24                1                       0
   1640 y_20_24                1                       0
   1643 y_23_24                1                       0
   1644 y_24_24                1                       0
   1669 y_19_25                1                       0
   1674 y_24_25                1                       0
   1675 y_25_25                1                       0
   1699 y_19_26                1                       0
   1700 y_20_26                1                       0
   1703 y_23_26                1                       0
   1706 y_26_26                1                       0
   1729 y_19_27                1                       0
   1730 y_20_27                1                       0
   1733 y_23_27                1                       0
   1736 y_26_27                1                       0
   1737 y_27_27                1                       0
   1764 y_24_28                1                       0
   1765 y_25_28                1                       0
   1768 y_28_28                1                       0
   1789 y_19_29                1                       0
   1792 y_22_29                1                       0
   1793 y_23_29                1                       0
   1794 y_24_29                1                       0
   1799 y_29_29                1                       0
   1819 y_19_30                1                       0
   1820 y_20_30                1                       0
   1823 y_23_30                1                       0
   1830 y_30_30                1                       0
